p edge 27 163
e 4 3
e 5 3
e 6 2
e 6 3
e 7 1
e 7 4
e 7 6
e 8 1
e 8 2
e 8 3
e 8 4
e 8 7
e 9 2
e 9 3
e 9 7
e 9 8
e 10 2
e 10 3
e 10 4
e 10 5
e 10 7
e 10 9
e 11 1
e 11 4
e 11 6
e 11 7
e 11 10
e 12 3
e 12 4
e 12 8
e 12 11
e 13 1
e 13 2
e 13 6
e 13 8
e 13 9
e 13 11
e 13 12
e 14 5
e 14 8
e 14 11
e 14 12
e 15 1
e 15 2
e 15 11
e 15 12
e 16 2
e 16 3
e 16 4
e 16 8
e 16 10
e 16 11
e 16 13
e 17 6
e 17 8
e 17 9
e 17 11
e 17 14
e 17 16
e 18 2
e 18 6
e 18 7
e 18 11
e 18 13
e 18 15
e 18 16
e 19 4
e 19 6
e 19 8
e 19 10
e 19 11
e 19 12
e 19 13
e 19 14
e 19 16
e 19 17
e 19 18
e 20 3
e 20 5
e 20 8
e 20 9
e 20 10
e 20 11
e 20 15
e 20 17
e 20 19
e 21 1
e 21 4
e 21 8
e 21 10
e 21 11
e 21 16
e 22 1
e 22 2
e 22 6
e 22 7
e 22 8
e 22 9
e 22 12
e 22 14
e 22 18
e 22 21
e 23 2
e 23 3
e 23 7
e 23 9
e 23 12
e 23 13
e 23 15
e 23 16
e 23 17
e 23 18
e 23 19
e 23 21
e 24 2
e 24 5
e 24 8
e 24 9
e 24 12
e 24 13
e 24 14
e 24 17
e 24 19
e 24 20
e 24 23
e 25 1
e 25 3
e 25 5
e 25 6
e 25 8
e 25 9
e 25 10
e 25 11
e 25 13
e 25 16
e 25 17
e 25 18
e 25 19
e 25 20
e 25 21
e 25 24
e 26 1
e 26 6
e 26 7
e 26 10
e 26 11
e 26 12
e 26 14
e 26 16
e 26 18
e 26 21
e 26 25
e 27 4
e 27 8
e 27 10
e 27 13
e 27 15
e 27 16
e 27 18
e 27 20
e 27 24
e 27 25
e 27 26
